(declare-fun var0 () String)
(assert (RegexIn var0 (RegexConcat (RegexPlus (RegexPlus (Str2Reg "~"))) (RegexConcat (RegexStar (RegexPlus (Str2Reg "}}}"))) (RegexConcat (RegexPlus (RegexUnion (Str2Reg "{{{") (Str2Reg "|"))) (RegexConcat (RegexStar (RegexStar (Str2Reg "``"))) (RegexConcat (RegexUnion (RegexUnion (Str2Reg "\\\\\\") (Str2Reg "]")) (RegexUnion (Str2Reg "^^") (Str2Reg "___"))) (RegexConcat (RegexUnion (RegexUnion (Str2Reg "??") (Str2Reg "@@")) (RegexStar (Str2Reg "[["))) (RegexConcat (RegexPlus (RegexStar (Str2Reg ">>>"))) (RegexConcat (RegexPlus (RegexPlus (Str2Reg "="))) (RegexConcat (RegexUnion (RegexPlus (Str2Reg ";;;")) (RegexStar (Str2Reg "<<"))) (RegexConcat (RegexPlus (RegexStar (Str2Reg "::"))) (RegexConcat (RegexUnion (RegexUnion (Str2Reg "---") (Str2Reg ".")) (RegexStar (Str2Reg "/"))) (RegexConcat (RegexUnion (RegexStar (Str2Reg "*")) (RegexUnion (Str2Reg "+") (Str2Reg ","))) (RegexConcat (RegexPlus (RegexPlus (Str2Reg ")"))) (RegexConcat (RegexStar (RegexStar (Str2Reg "("))) (RegexConcat (RegexUnion (RegexUnion (Str2Reg "%%") (Str2Reg "&&&")) (RegexPlus (Str2Reg "'''"))) (RegexConcat (RegexStar (RegexStar (Str2Reg "$$"))) (RegexConcat (RegexUnion (RegexUnion (Str2Reg "ZZZ") (Str2Reg "!!!")) (RegexUnion (Str2Reg "\"\"\"") (Str2Reg "###"))) (RegexConcat (RegexStar (RegexUnion (Str2Reg "X") (Str2Reg "Y"))) (RegexConcat (RegexStar (RegexUnion (Str2Reg "V") (Str2Reg "W"))) (RegexConcat (RegexPlus (RegexStar (Str2Reg "UU"))) (RegexConcat (RegexUnion (RegexStar (Str2Reg "RR")) (RegexUnion (Str2Reg "SSS") (Str2Reg "TT"))) (RegexConcat (RegexStar (RegexPlus (Str2Reg "Q"))) (RegexConcat (RegexPlus (RegexStar (Str2Reg "PPP"))) (RegexConcat (RegexPlus (RegexUnion (Str2Reg "N") (Str2Reg "OOO"))) (RegexConcat (RegexPlus (RegexPlus (Str2Reg "M"))) (RegexConcat (RegexUnion (RegexUnion (Str2Reg "I") (Str2Reg "JJJ")) (RegexUnion (Str2Reg "KK") (Str2Reg "L"))) (RegexConcat (RegexUnion (RegexUnion (Str2Reg "F") (Str2Reg "G")) (RegexPlus (Str2Reg "HH"))) (RegexConcat (RegexPlus (RegexUnion (Str2Reg "DDD") (Str2Reg "EEE"))) (RegexConcat (RegexStar (RegexPlus (Str2Reg "C"))) (RegexConcat (RegexUnion (RegexStar (Str2Reg "zz")) (RegexUnion (Str2Reg "A") (Str2Reg "B"))) (RegexConcat (RegexPlus (RegexUnion (Str2Reg "xx") (Str2Reg "y"))) (RegexConcat (RegexUnion (RegexStar (Str2Reg "v")) (RegexPlus (Str2Reg "w"))) (RegexConcat (RegexPlus (RegexUnion (Str2Reg "tt") (Str2Reg "uuu"))) (RegexConcat (RegexStar (RegexUnion (Str2Reg "r") (Str2Reg "s"))) (RegexConcat (RegexStar (RegexPlus (Str2Reg "qq"))) (RegexConcat (RegexUnion (RegexStar (Str2Reg "nnn")) (RegexUnion (Str2Reg "oo") (Str2Reg "pp"))) (RegexConcat (RegexPlus (RegexStar (Str2Reg "m"))) (RegexConcat (RegexStar (RegexPlus (Str2Reg "l"))) (RegexConcat (RegexPlus (RegexUnion (Str2Reg "j") (Str2Reg "kk"))) (RegexConcat (RegexUnion (RegexUnion (Str2Reg "ggg") (Str2Reg "hhh")) (RegexStar (Str2Reg "i"))) (RegexConcat (RegexStar (RegexUnion (Str2Reg "e") (Str2Reg "f"))) (RegexConcat (RegexUnion (RegexPlus (Str2Reg "bb")) (RegexUnion (Str2Reg "c") (Str2Reg "dd"))) (RegexConcat (RegexPlus (RegexUnion (Str2Reg "99") (Str2Reg "a"))) (RegexConcat (RegexPlus (RegexStar (Str2Reg "88"))) (RegexConcat (RegexPlus (RegexUnion (Str2Reg "6") (Str2Reg "777"))) (RegexConcat (RegexPlus (RegexStar (Str2Reg "5"))) (RegexConcat (RegexPlus (RegexUnion (Str2Reg "33") (Str2Reg "4"))) (RegexConcat (RegexPlus (RegexUnion (Str2Reg "11") (Str2Reg "22"))) (RegexStar (RegexStar (Str2Reg "0")))))))))))))))))))))))))))))))))))))))))))))))))))))
(check-sat)